PointerNetwork/Ptr_Net_TSPTW/benchmark/n20w60/n20w60.004.txt.solution
1 4 20 8 12 13 18 2 6 10 15 7 9 17 11 19 14 3 16 21 5 
280
